#######################



#######################
Set parameter TimeLimit to value 300
Set parameter SoftMemLimit to value 125
Set parameter MIPFocus to value 3
Set parameter LogFile to value 1202-MIPFocus3-Presolve1-TimeLimit300-k16x240-2.log
Set parameter Presolve to value 1
Set parameter Seed to value 2
Using license file /opt/gurobi/gurobi.lic

Gurobi Optimizer version 12.0.2 build v12.0.2rc0 (linux64 - "Ubuntu 22.04.4 LTS")
Copyright (c) 2025, Gurobi Optimization, LLC

Read MPS format model from file /miplib2010/k16x240.mps.bz2
Reading time = 0.00 seconds
k16x240: 256 rows, 480 columns, 960 nonzeros

Using Gurobi shared library /nfs/shared/static-builds/gurobi1202

CPU model: Intel(R) Xeon(R) E-2388G CPU @ 3.20GHz, instruction set [SSE2|AVX|AVX2|AVX512]
Thread count: 8 physical cores, 16 logical processors, using up to 16 threads

Non-default parameters:
TimeLimit  300
SoftMemLimit  125
MIPFocus  3
Presolve  1
Seed  2

Optimize a model with 256 rows, 480 columns and 960 nonzeros
Model fingerprint: 0x4e80885f
Variable types: 240 continuous, 240 integer (240 binary)
Coefficient statistics:
  Matrix range     [1e+00, 1e+03]
  Objective range  [1e+00, 1e+03]
  Bounds range     [1e+00, 1e+03]
  RHS range        [4e+00, 4e+02]
Found heuristic solution: objective 20929.000000
Presolve time: 0.00s
Presolved: 256 rows, 480 columns, 960 nonzeros
Variable types: 240 continuous, 240 integer (240 binary)

Root relaxation: objective 2.769838e+03, 51 iterations, 0.00 seconds (0.00 work units)

    Nodes    |    Current Node    |     Objective Bounds      |     Work
 Expl Unexpl |  Obj  Depth IntInf | Incumbent    BestBd   Gap | It/Node Time

     0     0 2769.83800    0   14 20929.0000 2769.83800  86.8%     -    0s
H    0     0                    11359.000000 2769.83800  75.6%     -    0s
H    0     0                    11195.000000 2769.83800  75.3%     -    0s
H    0     0                    11088.000000 2769.83800  75.0%     -    0s
H    0     0                    11074.000000 2769.83800  75.0%     -    0s
H    0     0                    10916.000000 8116.87580  25.6%     -    0s
     0     0 8116.87580    0   26 10916.0000 8116.87580  25.6%     -    0s
H    0     0                    10838.000000 8182.85928  24.5%     -    0s
H    0     0                    10836.000000 8182.85928  24.5%     -    0s
H    0     0                    10826.000000 8182.85928  24.4%     -    0s
H    0     0                    10806.000000 8182.85928  24.3%     -    0s
H    0     0                    10804.000000 8182.85928  24.3%     -    0s
     0     0 8738.72045    0   24 10804.0000 8738.72045  19.1%     -    0s
H    0     0                    10750.000000 8738.72045  18.7%     -    0s
H    0     0                    10746.000000 8930.21850  16.9%     -    0s
     0     0 8955.29750    0   31 10746.0000 8955.29750  16.7%     -    0s
     0     0 9110.01024    0   37 10746.0000 9110.01024  15.2%     -    0s
     0     0 9110.01024    0   37 10746.0000 9110.01024  15.2%     -    0s
     0     0 9213.98887    0   33 10746.0000 9213.98887  14.3%     -    0s
     0     0 9247.00990    0   31 10746.0000 9247.00990  13.9%     -    0s
     0     0 9273.41860    0   37 10746.0000 9273.41860  13.7%     -    0s
     0     0 9273.41860    0   37 10746.0000 9273.41860  13.7%     -    0s
     0     2 9273.41860    0   37 10746.0000 9273.41860  13.7%     -    0s
H   36    62                    10674.000000 9307.15101  12.8%  70.0    0s
  4455  3186 10382.2590   25   32 10674.0000 10269.1192  3.79%   104    5s
 17116  8088     cutoff   29      10674.0000 10496.3503  1.66%  75.0   10s

Cutting planes:
  Lift-and-project: 10
  Cover: 2
  Implied bound: 18
  Dual implied bound: 4
  MIR: 145
  Mixing: 2
  Flow cover: 530
  Flow path: 37
  Zero half: 23
  Network: 26

Explored 36142 nodes (1716919 simplex iterations) in 13.72 seconds (18.43 work units)
Thread count was 16 (of 16 available processors)

Solution count 10: 10674 10746 10750 ... 11074

Optimal solution found (tolerance 1.00e-04)
Best objective 1.067400000000e+04, best bound 1.067300000000e+04, gap 0.0094%
